c SAT Generator for power-law distributed variable frequencies
c -g u -v 20 -c 91 -k 3 -p 2.750000 -b 3.200000 -f /home/schmidt/Devel/ni-kop-sat/data/ensemble/ruf20-91/ruf20-91-510 -u 1 -U 1 -s 812015936
p cnf 20 91
-2 -3 -17 0
8 10 -19 0
-4 -9 10 0
12 14 17 0
9 -14 19 0
-10 12 -14 0
-7 -14 -15 0
5 -7 20 0
10 -14 -19 0
12 16 19 0
1 -6 -12 0
-2 6 18 0
6 -8 -16 0
-1 9 -14 0
12 -16 20 0
3 -6 16 0
-9 13 18 0
3 4 6 0
4 8 -15 0
-2 11 12 0
-5 -6 13 0
2 -13 20 0
-2 -7 -8 0
-3 -11 13 0
-1 11 17 0
-13 -18 19 0
1 3 6 0
2 -7 10 0
6 10 -19 0
4 -8 20 0
-8 17 -19 0
-1 3 -13 0
-11 13 15 0
-2 6 -20 0
1 -7 10 0
-1 -8 15 0
-4 -12 18 0
13 -15 -17 0
13 15 16 0
-1 3 12 0
3 5 -6 0
10 14 20 0
4 5 17 0
10 -11 -17 0
-4 -12 -17 0
-5 10 -16 0
-4 -13 -16 0
-15 -18 19 0
4 7 -18 0
-1 5 7 0
-5 6 -13 0
-6 8 10 0
7 -9 -13 0
3 -13 -20 0
-14 -15 17 0
7 -10 12 0
-3 6 -19 0
7 11 -17 0
3 4 8 0
-10 -11 15 0
-4 -15 -20 0
-12 16 -18 0
-5 -6 19 0
-16 18 19 0
-4 -7 -12 0
2 -11 -18 0
-9 12 -18 0
-10 11 12 0
1 -9 13 0
-1 -4 5 0
2 -17 19 0
-1 9 19 0
6 19 20 0
1 -12 20 0
1 11 18 0
-4 11 15 0
2 6 -14 0
-1 11 -17 0
-2 -3 15 0
-2 -6 18 0
7 17 18 0
4 -7 8 0
-2 -18 -20 0
4 -18 -19 0
5 -9 17 0
-4 -6 15 0
3 6 -8 0
-7 -12 -16 0
11 -18 -19 0
-1 2 -8 0
-13 16 19 0
